120
150
49
57
56
53
51
59
47
53
51
41
44
50
40
59
44
55
51
54
51
53
55
48
42
60
54
51
48
58
47
56
55
42
47
46
50
53
53
52
47
44
56
49
46
53
48
56
50
56
56
52
48
59
48
55
42
40
41
57
53
54
54
51
52
53
42
51
52
43
57
59
49
59
59
53
50
41
42
53
56
44
48
45
59
49
56
51
45
40
55
57
44
49
53
41
53
43
44
54
56
55
49
55
45
44
51
40
47
46
45
46
47
58
59
50
44
51
59
49
47
60
